c 15-node graph, 3 complete subgraphs with edges btwn each two clusters
p sp 15 68
a 0 1
a 0 2
a 0 3
a 0 4
a 0 13
a 1 0 
a 1 2
a 1 3
a 1 4
a 2 0
a 2 1
a 2 3
a 2 4
a 3 0
a 3 1
a 3 2
a 3 4
a 4 0 
a 4 1
a 4 2
a 4 3
a 4 7
a 4 8
a 5 6
a 5 7
a 5 8
a 5 9
a 6 5
a 6 7
a 6 8
a 6 9
a 7 4
a 7 5
a 7 6
a 7 8
a 7 9
a 8 5
a 8 6
a 8 7
a 8 9
a 8 14
a 8 4
a 9 5
a 9 6
a 9 7
a 9 8
a 10 11
a 10 12
a 10 13
a 10 14
a 11 10
a 11 12
a 11 13
a 11 14
a 12 10
a 12 11
a 12 13
a 12 14
a 13 0
a 13 10
a 13 11
a 13 12
a 13 14
a 14 8
a 14 10
a 14 11
a 14 12
a 14 13